\ Model optimization_model
\ LP format - for model browsing. Use MPS format to capture full model detail.
\ Signature: 0x76c03b31b36e3c8e
Minimize
  39.60342261889173 evs_power[0,0] + 44.62937934410533 evs_power[1,0]
   + 46.82726043017362 evs_power[2,0] + 49.85342484985007 evs_power[3,0]
   + 51.00813545369464 evs_power[4,0] + 53.23114883682703 evs_power[5,0]
   + 56.126175639353 evs_power[6,0] + 55.73964784269457 evs_power[7,0]
   + 57.1379040721967 evs_power[8,0] + 58.30008059211421 evs_power[9,0]
   + 57.45233626463904 evs_power[10,0] + 57.15915191260111 evs_power[11,0]
   + 56.59311888489871 evs_power[12,0] + 57.14281981955702 evs_power[13,0]
   + 56.5766138407903 evs_power[14,0] + 53.6842110962799 evs_power[15,0]
   + 53.3170131726537 evs_power[16,0] + 52.16958303206252 evs_power[17,0]
   + 50.47649455756343 evs_power[18,0] + 48.34737061365316 evs_power[19,0]
   + 46.34643540241959 evs_power[20,0] + 44.14928806724262 evs_power[21,0]
   + 40.81812200853975 evs_power[22,0] + 41.5875953753395 evs_power[23,0]
   + 38.89531456730771 evs_power[24,0] + 35.92839418938817 evs_power[25,0]
   + 33.94003749406993 evs_power[26,0] + 29.22084151402858 evs_power[27,0]
   + 26.88321760321885 evs_power[28,0] + 23.95788262105089 evs_power[29,0]
   + 19.15163891472402 evs_power[30,0] + 15.46230033370846 evs_power[31,0]
   + 15.75523795721742 evs_power[32,0] + 10.609559279742 evs_power[33,0]
   + 7.65034791116625 evs_power[34,0] + 3.228117345477955 evs_power[35,0]
   - 1.283552670436584 evs_power[36,0] - 0.5665773734325186 evs_power[37,0]
   - 6.452376348916057 evs_power[38,0] - 7.881939910549249 evs_power[39,0]
   - 7.741450285215478 evs_power[40,0] - 12.47075173505532 evs_power[41,0]
   - 12.77967379125779 evs_power[42,0] - 15.81005365048675 evs_power[43,0]
   - 17.91195892228293 evs_power[44,0] - 19.17018615812688 evs_power[45,0]
   - 20.92893515088296 evs_power[46,0] - 23.12152324231064 evs_power[47,0]
   - 20.99289877223634 evs_power[48,0] - 25.54814964581131 evs_power[49,0]
   - 26.56550257043368 evs_power[50,0] - 26.17558412680752 evs_power[51,0]
   - 27.27587214648508 evs_power[52,0] - 27.27929000896302 evs_power[53,0]
   - 26.60088396639881 evs_power[54,0] - 26.99216235661758 evs_power[55,0]
   - 25.1738389109943 evs_power[56,0] - 24.8759455563535 evs_power[57,0]
   - 25.2197002900114 evs_power[58,0] - 24.16717697760333 evs_power[59,0]
   - 23.5510399697801 evs_power[60,0] - 22.60695467294827 evs_power[61,0]
   - 21.59662551376331 evs_power[62,0] - 22.27410347860075 evs_power[63,0]
   - 16.45691479781189 evs_power[64,0] - 14.88891811022785 evs_power[65,0]
   - 14.84278861318066 evs_power[66,0] - 13.17727536043044 evs_power[67,0]
   - 9.816007535141006 evs_power[68,0] - 9.583015784689026 evs_power[69,0]
   - 6.755931673589302 evs_power[70,0] - 2.841117654544166 evs_power[71,0]
   - 0.1874367037698548 evs_power[72,0] + 1.497871130061148 evs_power[73,0]
   + 3.173006043080647 evs_power[74,0] + 1.243212066891689 evs_power[75,0]
   + 5.061338086406814 evs_power[76,0] + 8.036809139285028 evs_power[77,0]
   + 6.866364597412641 evs_power[78,0] + 11.05112894373411 evs_power[79,0]
   + 12.44452985841474 evs_power[80,0] + 12.41447536720295 evs_power[81,0]
   + 13.76481840192109 evs_power[82,0] + 13.33827747319787 evs_power[83,0]
   + 15.66959480111106 evs_power[84,0] + 15.29136893148583 evs_power[85,0]
   + 13.28768269785019 evs_power[86,0] + 17.54584850545334 evs_power[87,0]
   + 16.34081410083356 evs_power[88,0] + 16.7712408524012 evs_power[89,0]
   + 15.49190539138253 evs_power[90,0] + 15.69847541521087 evs_power[91,0]
   + 16.39484858724662 evs_power[92,0] + 16.39668326439181 evs_power[93,0]
   + 17.40217844479621 evs_power[94,0] + 16.83783557263136 evs_power[95,0]
   + 22075.80020177043 Constant + [ 2 evs_power[0,0] ^2
   + 2 evs_power[1,0] ^2 + 2 evs_power[2,0] ^2 + 2 evs_power[3,0] ^2
   + 2 evs_power[4,0] ^2 + 2 evs_power[5,0] ^2 + 2 evs_power[6,0] ^2
   + 2 evs_power[7,0] ^2 + 2 evs_power[8,0] ^2 + 2 evs_power[9,0] ^2
   + 2 evs_power[10,0] ^2 + 2 evs_power[11,0] ^2 + 2 evs_power[12,0] ^2
   + 2 evs_power[13,0] ^2 + 2 evs_power[14,0] ^2 + 2 evs_power[15,0] ^2
   + 2 evs_power[16,0] ^2 + 2 evs_power[17,0] ^2 + 2 evs_power[18,0] ^2
   + 2 evs_power[19,0] ^2 + 2 evs_power[20,0] ^2 + 2 evs_power[21,0] ^2
   + 2 evs_power[22,0] ^2 + 2 evs_power[23,0] ^2 + 2 evs_power[24,0] ^2
   + 2 evs_power[25,0] ^2 + 2 evs_power[26,0] ^2 + 2 evs_power[27,0] ^2
   + 2 evs_power[28,0] ^2 + 2 evs_power[29,0] ^2 + 2 evs_power[30,0] ^2
   + 2 evs_power[31,0] ^2 + 2 evs_power[32,0] ^2 + 2 evs_power[33,0] ^2
   + 2 evs_power[34,0] ^2 + 2 evs_power[35,0] ^2 + 2 evs_power[36,0] ^2
   + 2 evs_power[37,0] ^2 + 2 evs_power[38,0] ^2 + 2 evs_power[39,0] ^2
   + 2 evs_power[40,0] ^2 + 2 evs_power[41,0] ^2 + 2 evs_power[42,0] ^2
   + 2 evs_power[43,0] ^2 + 2 evs_power[44,0] ^2 + 2 evs_power[45,0] ^2
   + 2 evs_power[46,0] ^2 + 2 evs_power[47,0] ^2 + 2 evs_power[48,0] ^2
   + 2 evs_power[49,0] ^2 + 2 evs_power[50,0] ^2 + 2 evs_power[51,0] ^2
   + 2 evs_power[52,0] ^2 + 2 evs_power[53,0] ^2 + 2 evs_power[54,0] ^2
   + 2 evs_power[55,0] ^2 + 2 evs_power[56,0] ^2 + 2 evs_power[57,0] ^2
   + 2 evs_power[58,0] ^2 + 2 evs_power[59,0] ^2 + 2 evs_power[60,0] ^2
   + 2 evs_power[61,0] ^2 + 2 evs_power[62,0] ^2 + 2 evs_power[63,0] ^2
   + 2 evs_power[64,0] ^2 + 2 evs_power[65,0] ^2 + 2 evs_power[66,0] ^2
   + 2 evs_power[67,0] ^2 + 2 evs_power[68,0] ^2 + 2 evs_power[69,0] ^2
   + 2 evs_power[70,0] ^2 + 2 evs_power[71,0] ^2 + 2 evs_power[72,0] ^2
   + 2 evs_power[73,0] ^2 + 2 evs_power[74,0] ^2 + 2 evs_power[75,0] ^2
   + 2 evs_power[76,0] ^2 + 2 evs_power[77,0] ^2 + 2 evs_power[78,0] ^2
   + 2 evs_power[79,0] ^2 + 2 evs_power[80,0] ^2 + 2 evs_power[81,0] ^2
   + 2 evs_power[82,0] ^2 + 2 evs_power[83,0] ^2 + 2 evs_power[84,0] ^2
   + 2 evs_power[85,0] ^2 + 2 evs_power[86,0] ^2 + 2 evs_power[87,0] ^2
   + 2 evs_power[88,0] ^2 + 2 evs_power[89,0] ^2 + 2 evs_power[90,0] ^2
   + 2 evs_power[91,0] ^2 + 2 evs_power[92,0] ^2 + 2 evs_power[93,0] ^2
   + 2 evs_power[94,0] ^2 + 2 evs_power[95,0] ^2 ] / 2 
Subject To
 MinBatteryCapacity_LB_time0_counter0: 0.25 evs_power[0,0] >= -26.9
 MaxBatteryCapacity_UB_time0_counter0: 0.25 evs_power[0,0] <= 13.1
 DesiredCapacity_counter0: 0.25 evs_power[0,0] >= -6.9
 power==0_EV_Departed_time1_counter0: evs_power[1,0] = 0
 power==0_EV_Departed_time2_counter0: evs_power[2,0] = 0
 power==0_EV_Departed_time3_counter0: evs_power[3,0] = 0
 power==0_EV_Departed_time4_counter0: evs_power[4,0] = 0
 power==0_EV_Departed_time5_counter0: evs_power[5,0] = 0
 power==0_EV_Departed_time6_counter0: evs_power[6,0] = 0
 power==0_EV_Departed_time7_counter0: evs_power[7,0] = 0
 power==0_EV_Departed_time8_counter0: evs_power[8,0] = 0
 power==0_EV_Departed_time9_counter0: evs_power[9,0] = 0
 power==0_EV_Departed_time10_counter0: evs_power[10,0] = 0
 power==0_EV_Departed_time11_counter0: evs_power[11,0] = 0
 power==0_EV_Departed_time12_counter0: evs_power[12,0] = 0
 power==0_EV_Departed_time13_counter0: evs_power[13,0] = 0
 power==0_EV_Departed_time14_counter0: evs_power[14,0] = 0
 power==0_EV_Departed_time15_counter0: evs_power[15,0] = 0
 power==0_EV_Departed_time16_counter0: evs_power[16,0] = 0
 power==0_EV_Departed_time17_counter0: evs_power[17,0] = 0
 power==0_EV_Departed_time18_counter0: evs_power[18,0] = 0
 power==0_EV_Departed_time19_counter0: evs_power[19,0] = 0
 power==0_EV_Departed_time20_counter0: evs_power[20,0] = 0
 power==0_EV_Departed_time21_counter0: evs_power[21,0] = 0
 power==0_EV_Departed_time22_counter0: evs_power[22,0] = 0
 power==0_EV_Departed_time23_counter0: evs_power[23,0] = 0
 power==0_EV_Departed_time24_counter0: evs_power[24,0] = 0
 power==0_EV_Departed_time25_counter0: evs_power[25,0] = 0
 power==0_EV_Departed_time26_counter0: evs_power[26,0] = 0
 power==0_EV_Departed_time27_counter0: evs_power[27,0] = 0
 power==0_EV_Departed_time28_counter0: evs_power[28,0] = 0
 power==0_EV_Departed_time29_counter0: evs_power[29,0] = 0
 power==0_EV_Departed_time30_counter0: evs_power[30,0] = 0
 power==0_EV_Departed_time31_counter0: evs_power[31,0] = 0
 power==0_EV_Departed_time32_counter0: evs_power[32,0] = 0
 power==0_EV_Departed_time33_counter0: evs_power[33,0] = 0
 power==0_EV_Departed_time34_counter0: evs_power[34,0] = 0
 power==0_EV_Departed_time35_counter0: evs_power[35,0] = 0
 power==0_EV_Departed_time36_counter0: evs_power[36,0] = 0
 power==0_EV_Departed_time37_counter0: evs_power[37,0] = 0
 power==0_EV_Departed_time38_counter0: evs_power[38,0] = 0
 power==0_EV_Departed_time39_counter0: evs_power[39,0] = 0
 power==0_EV_Departed_time40_counter0: evs_power[40,0] = 0
 power==0_EV_Departed_time41_counter0: evs_power[41,0] = 0
 power==0_EV_Departed_time42_counter0: evs_power[42,0] = 0
 power==0_EV_Departed_time43_counter0: evs_power[43,0] = 0
 power==0_EV_Departed_time44_counter0: evs_power[44,0] = 0
 power==0_EV_Departed_time45_counter0: evs_power[45,0] = 0
 power==0_EV_Departed_time46_counter0: evs_power[46,0] = 0
 power==0_EV_Departed_time47_counter0: evs_power[47,0] = 0
 power==0_EV_Departed_time48_counter0: evs_power[48,0] = 0
 power==0_EV_Departed_time49_counter0: evs_power[49,0] = 0
 power==0_EV_Departed_time50_counter0: evs_power[50,0] = 0
 power==0_EV_Departed_time51_counter0: evs_power[51,0] = 0
 power==0_EV_Departed_time52_counter0: evs_power[52,0] = 0
 power==0_EV_Departed_time53_counter0: evs_power[53,0] = 0
 power==0_EV_Departed_time54_counter0: evs_power[54,0] = 0
 power==0_EV_Departed_time55_counter0: evs_power[55,0] = 0
 power==0_EV_Departed_time56_counter0: evs_power[56,0] = 0
 power==0_EV_Departed_time57_counter0: evs_power[57,0] = 0
 power==0_EV_Departed_time58_counter0: evs_power[58,0] = 0
 power==0_EV_Departed_time59_counter0: evs_power[59,0] = 0
 power==0_EV_Departed_time60_counter0: evs_power[60,0] = 0
 power==0_EV_Departed_time61_counter0: evs_power[61,0] = 0
 power==0_EV_Departed_time62_counter0: evs_power[62,0] = 0
 power==0_EV_Departed_time63_counter0: evs_power[63,0] = 0
 power==0_EV_Departed_time64_counter0: evs_power[64,0] = 0
 power==0_EV_Departed_time65_counter0: evs_power[65,0] = 0
 power==0_EV_Departed_time66_counter0: evs_power[66,0] = 0
 power==0_EV_Departed_time67_counter0: evs_power[67,0] = 0
 power==0_EV_Departed_time68_counter0: evs_power[68,0] = 0
 power==0_EV_Departed_time69_counter0: evs_power[69,0] = 0
 power==0_EV_Departed_time70_counter0: evs_power[70,0] = 0
 power==0_EV_Departed_time71_counter0: evs_power[71,0] = 0
 power==0_EV_Departed_time72_counter0: evs_power[72,0] = 0
 power==0_EV_Departed_time73_counter0: evs_power[73,0] = 0
 power==0_EV_Departed_time74_counter0: evs_power[74,0] = 0
 power==0_EV_Departed_time75_counter0: evs_power[75,0] = 0
 power==0_EV_Departed_time76_counter0: evs_power[76,0] = 0
 power==0_EV_Departed_time77_counter0: evs_power[77,0] = 0
 power==0_EV_Departed_time78_counter0: evs_power[78,0] = 0
 power==0_EV_Departed_time79_counter0: evs_power[79,0] = 0
 power==0_EV_Departed_time80_counter0: evs_power[80,0] = 0
 power==0_EV_Departed_time81_counter0: evs_power[81,0] = 0
 power==0_EV_Departed_time82_counter0: evs_power[82,0] = 0
 power==0_EV_Departed_time83_counter0: evs_power[83,0] = 0
 power==0_EV_Departed_time84_counter0: evs_power[84,0] = 0
 power==0_EV_Departed_time85_counter0: evs_power[85,0] = 0
 power==0_EV_Departed_time86_counter0: evs_power[86,0] = 0
 power==0_EV_Departed_time87_counter0: evs_power[87,0] = 0
 power==0_EV_Departed_time88_counter0: evs_power[88,0] = 0
 power==0_EV_Departed_time89_counter0: evs_power[89,0] = 0
 power==0_EV_Departed_time90_counter0: evs_power[90,0] = 0
 power==0_EV_Departed_time91_counter0: evs_power[91,0] = 0
 power==0_EV_Departed_time92_counter0: evs_power[92,0] = 0
 power==0_EV_Departed_time93_counter0: evs_power[93,0] = 0
 power==0_EV_Departed_time94_counter0: evs_power[94,0] = 0
 power==0_EV_Departed_time95_counter0: evs_power[95,0] = 0
Bounds
 -22.30881440148714 <= evs_power[0,0] <= 22.30881440148714
 -22.30881440148714 <= evs_power[1,0] <= 22.30881440148714
 -22.30881440148714 <= evs_power[2,0] <= 22.30881440148714
 -22.30881440148714 <= evs_power[3,0] <= 22.30881440148714
 -22.30881440148714 <= evs_power[4,0] <= 22.30881440148714
 -22.30881440148714 <= evs_power[5,0] <= 22.30881440148714
 -22.30881440148714 <= evs_power[6,0] <= 22.30881440148714
 -22.30881440148714 <= evs_power[7,0] <= 22.30881440148714
 -22.30881440148714 <= evs_power[8,0] <= 22.30881440148714
 -22.30881440148714 <= evs_power[9,0] <= 22.30881440148714
 -22.30881440148714 <= evs_power[10,0] <= 22.30881440148714
 -22.30881440148714 <= evs_power[11,0] <= 22.30881440148714
 -22.30881440148714 <= evs_power[12,0] <= 22.30881440148714
 -22.30881440148714 <= evs_power[13,0] <= 22.30881440148714
 -22.30881440148714 <= evs_power[14,0] <= 22.30881440148714
 -22.30881440148714 <= evs_power[15,0] <= 22.30881440148714
 -22.30881440148714 <= evs_power[16,0] <= 22.30881440148714
 -22.30881440148714 <= evs_power[17,0] <= 22.30881440148714
 -22.30881440148714 <= evs_power[18,0] <= 22.30881440148714
 -22.30881440148714 <= evs_power[19,0] <= 22.30881440148714
 -22.30881440148714 <= evs_power[20,0] <= 22.30881440148714
 -22.30881440148714 <= evs_power[21,0] <= 22.30881440148714
 -22.30881440148714 <= evs_power[22,0] <= 22.30881440148714
 -22.30881440148714 <= evs_power[23,0] <= 22.30881440148714
 -22.30881440148714 <= evs_power[24,0] <= 22.30881440148714
 -22.30881440148714 <= evs_power[25,0] <= 22.30881440148714
 -22.30881440148714 <= evs_power[26,0] <= 22.30881440148714
 -22.30881440148714 <= evs_power[27,0] <= 22.30881440148714
 -22.30881440148714 <= evs_power[28,0] <= 22.30881440148714
 -22.30881440148714 <= evs_power[29,0] <= 22.30881440148714
 -22.30881440148714 <= evs_power[30,0] <= 22.30881440148714
 -22.30881440148714 <= evs_power[31,0] <= 22.30881440148714
 -22.30881440148714 <= evs_power[32,0] <= 22.30881440148714
 -22.30881440148714 <= evs_power[33,0] <= 22.30881440148714
 -22.30881440148714 <= evs_power[34,0] <= 22.30881440148714
 -22.30881440148714 <= evs_power[35,0] <= 22.30881440148714
 -22.30881440148714 <= evs_power[36,0] <= 22.30881440148714
 -22.30881440148714 <= evs_power[37,0] <= 22.30881440148714
 -22.30881440148714 <= evs_power[38,0] <= 22.30881440148714
 -22.30881440148714 <= evs_power[39,0] <= 22.30881440148714
 -22.30881440148714 <= evs_power[40,0] <= 22.30881440148714
 -22.30881440148714 <= evs_power[41,0] <= 22.30881440148714
 -22.30881440148714 <= evs_power[42,0] <= 22.30881440148714
 -22.30881440148714 <= evs_power[43,0] <= 22.30881440148714
 -22.30881440148714 <= evs_power[44,0] <= 22.30881440148714
 -22.30881440148714 <= evs_power[45,0] <= 22.30881440148714
 -22.30881440148714 <= evs_power[46,0] <= 22.30881440148714
 -22.30881440148714 <= evs_power[47,0] <= 22.30881440148714
 -22.30881440148714 <= evs_power[48,0] <= 22.30881440148714
 -22.30881440148714 <= evs_power[49,0] <= 22.30881440148714
 -22.30881440148714 <= evs_power[50,0] <= 22.30881440148714
 -22.30881440148714 <= evs_power[51,0] <= 22.30881440148714
 -22.30881440148714 <= evs_power[52,0] <= 22.30881440148714
 -22.30881440148714 <= evs_power[53,0] <= 22.30881440148714
 -22.30881440148714 <= evs_power[54,0] <= 22.30881440148714
 -22.30881440148714 <= evs_power[55,0] <= 22.30881440148714
 -22.30881440148714 <= evs_power[56,0] <= 22.30881440148714
 -22.30881440148714 <= evs_power[57,0] <= 22.30881440148714
 -22.30881440148714 <= evs_power[58,0] <= 22.30881440148714
 -22.30881440148714 <= evs_power[59,0] <= 22.30881440148714
 -22.30881440148714 <= evs_power[60,0] <= 22.30881440148714
 -22.30881440148714 <= evs_power[61,0] <= 22.30881440148714
 -22.30881440148714 <= evs_power[62,0] <= 22.30881440148714
 -22.30881440148714 <= evs_power[63,0] <= 22.30881440148714
 -22.30881440148714 <= evs_power[64,0] <= 22.30881440148714
 -22.30881440148714 <= evs_power[65,0] <= 22.30881440148714
 -22.30881440148714 <= evs_power[66,0] <= 22.30881440148714
 -22.30881440148714 <= evs_power[67,0] <= 22.30881440148714
 -22.30881440148714 <= evs_power[68,0] <= 22.30881440148714
 -22.30881440148714 <= evs_power[69,0] <= 22.30881440148714
 -22.30881440148714 <= evs_power[70,0] <= 22.30881440148714
 -22.30881440148714 <= evs_power[71,0] <= 22.30881440148714
 -22.30881440148714 <= evs_power[72,0] <= 22.30881440148714
 -22.30881440148714 <= evs_power[73,0] <= 22.30881440148714
 -22.30881440148714 <= evs_power[74,0] <= 22.30881440148714
 -22.30881440148714 <= evs_power[75,0] <= 22.30881440148714
 -22.30881440148714 <= evs_power[76,0] <= 22.30881440148714
 -22.30881440148714 <= evs_power[77,0] <= 22.30881440148714
 -22.30881440148714 <= evs_power[78,0] <= 22.30881440148714
 -22.30881440148714 <= evs_power[79,0] <= 22.30881440148714
 -22.30881440148714 <= evs_power[80,0] <= 22.30881440148714
 -22.30881440148714 <= evs_power[81,0] <= 22.30881440148714
 -22.30881440148714 <= evs_power[82,0] <= 22.30881440148714
 -22.30881440148714 <= evs_power[83,0] <= 22.30881440148714
 -22.30881440148714 <= evs_power[84,0] <= 22.30881440148714
 -22.30881440148714 <= evs_power[85,0] <= 22.30881440148714
 -22.30881440148714 <= evs_power[86,0] <= 22.30881440148714
 -22.30881440148714 <= evs_power[87,0] <= 22.30881440148714
 -22.30881440148714 <= evs_power[88,0] <= 22.30881440148714
 -22.30881440148714 <= evs_power[89,0] <= 22.30881440148714
 -22.30881440148714 <= evs_power[90,0] <= 22.30881440148714
 -22.30881440148714 <= evs_power[91,0] <= 22.30881440148714
 -22.30881440148714 <= evs_power[92,0] <= 22.30881440148714
 -22.30881440148714 <= evs_power[93,0] <= 22.30881440148714
 -22.30881440148714 <= evs_power[94,0] <= 22.30881440148714
 -22.30881440148714 <= evs_power[95,0] <= 22.30881440148714
 Constant = 1
End
